VER
1

OBJSENSE
MIN

VAR
5 1
F 5

INT
2
0
1

CON
1 1
L+ 1

PSDCON
2
2
2

OBJACOORD
4
0 1.000000
1 1.000000
2 1.000000
4 1.000000

ACOORD
3
0 0 -1.000000
0 1 -1.000000
0 3 2.000000

HCOORD
7
0 0 1 0 1.000000
0 0 1 1 3.000000
0 1 0 0 3.000000
0 1 1 0 1.000000
1 2 0 0 1.000000
1 3 1 0 1.000000
1 4 1 1 1.000000

DCOORD
2
0 0 0 -1.000000
0 1 1 -1.000000
